1c.dzn
nTiles = 30;

Strings = [
  "planet", % 1
  "animal", % 2
  "star trek", % 3
  "beans", % 4
  "swede", % 5
  "doctor", % 6
  "root", % 7
  "sphere", % 8
  "bjorn", % 9
  "hook", % 10
  "venus", % 11
  "god", % 12
  "house", % 13
  "vulcan", % 14
  "ball", % 15
  "alien", % 16
  "melon", % 17
  "vegetable", % 18
  "candy", % 19
  "cook", % 20
  "fruit", % 21
  "eagle", % 22
  "muppet", % 23
  "borg", % 24
  "coin", % 25
  "pig", % 26
  "building", % 27
  "captain", % 28
  "neptune", % 29
  "honeydew", % 30
];

WordsOfTile = [
  {14, 16, 3},
  {17, 21, 8}, % Not sure about 8 (probs not)
  {6, 3, 16}, % Not sure about 16 (probs not)
  {9, 24, 5},
  {11, 8, 1},
  {13, 6},
  {20, 23}, % Temporarily remove 5
  {3, 27}, % Not sure about 27
  {2, 23},
  {14, 12},
  {23, 22, 2}, % Not sure about 2
  {16, 24},
  {25, 28, 20},
  {13, 27},
  {15, 26},
  {4, 18, 21}, % Not sure about 21
  {28, 10},
  {25, 22},
  {18, 7, 20, 5}, % Not sure about 20 (probs not)
  {15, 8},
  {26, 2, 28, 3}, % Not sure about 3
  {17, 30, 21, 8},
  {11, 12},
  {18, 7, 20}, % Not sure about 20 (probs not)
  {9, 5},
  {12, 29},
  {19, 4},
  {6, 30, 23},
  {19, 10},
  {28, 3},
];

NumOfTile = [
  1,
  1,
  1,
  1,
  1,
  1,
  1,
  1,
  1,
  1,
  2,
  2,
  2,
  2,
  2,
  2,
  2,
  3,
  3,
  3,
  3,
  3,
  4,
  4,
  4,
  4,
  5,
  5,
  5,
  6,
];
