1c.output
patsddthbougovaaleyofamoigbaty
patsddohbougovaaleykfamoigbaty
patssdthrougovaaleyofamoigbaty
patssdohrougovaaleykfamoigbaty
patsddthbougovaameyouamoigbaty
patsddohbougovaameykuamoigbaty
patssdthrougovaameyouamoigbaty
patssdohrougovaameykuamoigbaty
patsddthbougovaamgycraeoigbatn
patssdthrougovaamgycraeoigbatn
patsddohbougovaameycraeoigbatn
patssdohrougovaameycraeoigbatn
patsddthbougovlamgyoramoiibpty
patssdthrougovlamgyoramoiibpty
patsddtsbougovlalgyoramoiibpty
patssdtsrougovlalgyoramoiibpty
patsddthbougovlamgycrguooibpty
patssdthrougovlamgycrguooibpty
patsddtsbougovlalgycrguooibpty
patssdtsrougovlalgycrguooibpty
patsddohbougovlameyoramoiibpty
patsddosbougovlaleyoramoiibpty
patssdohrougovlameyoramoiibpty
patssdosrougovlaleyoramoiibpty
patsddohbougovlameycrguooibpty
patsddosbougovlaleycrguooibpty
patssdohrougovlameycrguooibpty
patssdosrougovlaleycrguooibpty
pateddthbugovaalgycfguoogbaty
pateddthbugovaamgycuguoogbaty
patesdthrugovaalgycfguoogbaty
patesdthrugovaamgycuguoogbaty
pateddohbugovaaleycfguoogbaty
pateddohbugovaameycuguoogbaty
patesdohrugovaaleycfguoogbaty
patesdohrugovaameycuguoogbaty
pateddthbugovaalgyofamoigbaty
pateddthbugovaamgyouamoigbaty
patesdthrugovaalgyofamoigbaty
patesdthrugovaamgyouamoigbaty
pateddohbugovaaleyofamoigbaty
pateddohbugovaameyouamoigbaty
patesdohrugovaaleyofamoigbaty
patesdohrugovaameyouamoigbaty
pntsddthbougovlamgycrgmooibpty
pntssdthrougovlamgycrgmooibpty
pntsddtsbougovlalgycrgmooibpty
pntssdtsrougovlalgycrgmooibpty
pntsddohbougovlameycrgmooibpty
pntsddosbougovlaleycrgmooibpty
pntssdohrougovlameycrgmooibpty
pntssdosrougovlaleycrgmooibpty
pnteddthbugovaalgycfgmoogbaty
pnteddthbugovaamgycugmoogbaty
pnteddohbugovaaleycfgmoogbaty
pnteddohbugovaameycugmoogbaty
pntesdthrugovaalgycfgmoogbaty
pntesdthrugovaamgycugmoogbaty
pntesdohrugovaaleycfgmoogbaty
pntesdohrugovaameycugmoogbaty
pitsddthbougovlamgycramoiibaty
pitsddtsbougovlalgycramoiibaty
pitssdthrougovlamgycramoiibaty
pitssdtsrougovlalgycramoiibaty
pitsddohbougovlameycramoiibaty
pitsddosbougovlaleycramoiibaty
pitssdohrougovlameycramoiibaty
pitssdosrougovlaleycramoiibaty
passdothboughvaamgycrguooguitn
passdoohboughvaameycrguooguitn
passsothroughvaamgycrguooguitn
passsoohroughvaameycrguooguitn
passdothboughvaamgyoramoiguitn
passdoohboughvaameyoramoiguitn
passsothroughvaamgyoramoiguitn
passsoohroughvaameyoramoiguitn
passedthroughvalmeycuguboguity
passedthroughvalleycfguboguity
passedthroughvalmeyouambiguity
passedthroughvalleyofambiguity
pnssdothboughvaamgycrgmooguitn
pnssdoohboughvaameycrgmooguitn
pnsssothroughvaamgycrgmooguitn
pnsssoohroughvaameycrgmooguitn
pnssedthroughvalmeycugmboguity
pnssedthroughvalleycfgmboguity
paasddthbougovlamgycrguooibity
paasddohbougovlameycrguooibity
paassdthrougovlamgycrguooibity
paassdohrougovlameycrguooibity
paasddthbougovlamgyoramoiibity
paasddohbougovlameyoramoiibity
paassdthrougovlamgyoramoiibity
paassdohrougovlameyoramoiibity
paassdtsrougovlalgycrguooibity
paassdosrougovlaleycrguooibity
paassdtsrougovlalgyoramoiibity
paassdosrougovlaleyoramoiibity
paasddtsbougovlalgycrguooibity
paasddosbougovlaleycrguooibity
paasddtsbougovlalgyoramoiibity
paasddosbougovlaleyoramoiibity
passedthrougovalmeycugubogbity
passedthrougovalmeyouambigbity
passedthrougovalleycfgubogbity
passedthrougovalleyofambigbity
pnassdohrougovlameycrgmooibity
pnassdthrougovlamgycrgmooibity
pnasddohbougovlameycrgmooibity
pnasddthbougovlamgycrgmooibity
pnassdosrougovlaleycrgmooibity
pnassdtsrougovlalgycrgmooibity
pnasddosbougovlaleycrgmooibity
pnasddtsbougovlalgycrgmooibity
pnssedthrougovalmeycugmbogbity
pnssedthrougovalleycfgmbogbity